\ENCODING=ISO-8859-1
\Problem name: IloCplex

Maximize
 obj: 6 Cut#12 + [ - 12 naDual(0)(1)#0 ^2 - 12 naDual(1)(2)#1 ^2
      - 12 naDual(2)(3)#2 ^2 - 12 naDual(0)(2)#3 ^2 - 12 naDual(0)(3)#4 ^2
      - 12 naDual(1)(1)#5 ^2 - 12 naDual(1)(3)#6 ^2 - 12 naDual(2)(1)#7 ^2
      - 12 naDual(2)(2)#8 ^2 - 12 naDual(3)(1)#9 ^2 - 12 naDual(3)(2)#10 ^2
      - 12 naDual(3)(3)#11 ^2 ] / 2
Subject To
 _Expectation(0)#0: 0.200000002980232 naDual(0)(1)#0
                    + 0.300000011920929 naDual(0)(2)#3 + 0.5 naDual(0)(3)#4
                     = 0
 _Expectation(1)#1: 0.300000011920929 naDual(1)(2)#1
                    + 0.200000002980232 naDual(1)(1)#5 + 0.5 naDual(1)(3)#6
                     = 0
 _Expectation(2)#2: 0.5 naDual(2)(3)#2 + 0.200000002980232 naDual(2)(1)#7
                    + 0.300000011920929 naDual(2)(2)#8  = 0
 _Expectation(3)#3: 0.200000002980232 naDual(3)(1)#9
                    + 0.300000011920929 naDual(3)(2)#10 + 0.5 naDual(3)(3)#11
                     = 0
 Cut(0)#4:          5.00000007450581 naDual(0)(1)#0
                    + 15.0000005960464 naDual(1)(2)#1 + 7.5 naDual(2)(3)#2
                    + 7.50000029802322 naDual(0)(2)#3 + 12.5 naDual(0)(3)#4
                    + 9.00000013411045 naDual(1)(1)#5 + 30 naDual(1)(3)#6
                    + 6.00000008940697 naDual(2)(1)#7
                    + 7.50000029802322 naDual(2)(2)#8
                    + 20.0000002980232 naDual(3)(1)#9
                    + 30.0000011920929 naDual(3)(2)#10 + 50 naDual(3)(3)#11
                    + Cut#12 <= 99276.0014779121
 Cut(1)#5:          5.00000007450581 naDual(0)(1)#0 + 7.5 naDual(2)(3)#2
                    + 7.50000029802322 naDual(0)(2)#3 + 12.5 naDual(0)(3)#4
                    + 30 naDual(1)(3)#6 + 6.00000008940697 naDual(2)(1)#7
                    + 7.50000029802322 naDual(2)(2)#8
                    + 11.0000001639128 naDual(3)(1)#9
                    + 15.0000005960464 naDual(3)(2)#10 + 50 naDual(3)(3)#11
                    + Cut#12 <= 99344.6509541669
 Cut(2)#6:          5.00000007450581 naDual(0)(1)#0 + 7.5 naDual(2)(3)#2
                    + 7.50000029802322 naDual(0)(2)#3 + 12.5 naDual(0)(3)#4
                    + 30 naDual(1)(3)#6 + 6.00000008940697 naDual(2)(1)#7
                    + 7.50000029802322 naDual(2)(2)#8
                    + 11.0000001639128 naDual(3)(1)#9
                    + 15.0000005960464 naDual(3)(2)#10 + 50 naDual(3)(3)#11
                    + Cut#12 <= 99344.6509541669
 Cut(3)#7:          5.00000007450581 naDual(0)(1)#0 + 7.5 naDual(2)(3)#2
                    + 7.50000029802322 naDual(0)(2)#3 + 12.5 naDual(0)(3)#4
                    + 30 naDual(1)(3)#6 + 6.00000008940697 naDual(2)(1)#7
                    + 7.50000029802322 naDual(2)(2)#8
                    + 11.0000001639128 naDual(3)(1)#9
                    + 15.0000005960464 naDual(3)(2)#10 + 50 naDual(3)(3)#11
                    + Cut#12 <= 99344.6509541669
 Cut(4)#8:          5.00000007450581 naDual(0)(1)#0 + 7.5 naDual(2)(3)#2
                    + 7.50000029802322 naDual(0)(2)#3 + 12.5 naDual(0)(3)#4
                    + 30 naDual(1)(3)#6 + 6.00000008940697 naDual(2)(1)#7
                    + 7.50000029802322 naDual(2)(2)#8
                    + 11.0000001639128 naDual(3)(1)#9
                    + 15.0000005960464 naDual(3)(2)#10 + 50 naDual(3)(3)#11
                    + Cut#12 <= 99344.6509541669
Bounds
      naDual(0)(1)#0 Free
      naDual(1)(2)#1 Free
      naDual(2)(3)#2 Free
      naDual(0)(2)#3 Free
      naDual(0)(3)#4 Free
      naDual(1)(1)#5 Free
      naDual(1)(3)#6 Free
      naDual(2)(1)#7 Free
      naDual(2)(2)#8 Free
      naDual(3)(1)#9 Free
      naDual(3)(2)#10 Free
      naDual(3)(3)#11 Free
      Cut#12 Free
End
